Name: Toy
Course: 4
Rooms: 3
Days: 5
Periods_per_day: 4
Curricula: 2
Constraints: 8

COURSES:
ScCos Ocra 3 3 30
ArTec Scarlatti 3 2 42
TeCos Rosa 5 4 40
GeTec Scarlatti 5 4 18

ROOMS:
rA 32
rB 50
rC 40

CURRICULA:
Cur1 3 ScCos ArTec TeCos
Cur2 2 TeCos GeTec

UNAVAILABILITY_CONSTRAINTS:
TeCos 2 0
TeCos 2 1
TeCos 3 2
TeCos 3 3
ArTec 0 0
ArTec 4 1
ArTec 4 2
ArTec 4 3

END.